100 10
455 383
376 271
421 534
327 498
376 154
876 511
499 550
323 495
485 263
527 385
324 564
311 122
913 339
684 166
864 372
438 668
158 189
302 264
380 716
309 159
395 82
341 442
393 442
138 223
290 195
538 305
492 298
780 779
505 227
750 429
609 151
645 461
314 502
401 433
433 484
255 597
726 489
116 728
386 510
226 492
566 723
429 438
667 521
891 299
570 528
395 347
613 559
734 658
497 480
190 244
145 84
600 431
861 242
591 404
443 411
681 458
814 803
330 212
565 607
777 527
277 326
386 195
308 759
219 277
121 216
576 280
415 604
581 797
864 370
571 519
702 528
661 339
240 566
576 391
387 459
178 461
912 304
518 390
204 273
866 453
224 393
620 463
339 328
684 169
618 503
381 355
452 403
351 396
368 553
566 413
692 137
221 415
611 175
551 593
912 399
331 271
640 493
109 282
525 763
397 384
